(set-info :source |printed by MathSAT|)
(declare-fun A_4 () Int)
(declare-fun .x.20 () Int)
(declare-fun .y.7 () Int)
(declare-fun .y.11 () Int)
(declare-fun .y.8 () Int)
(declare-fun .y.12 () Int)
(declare-fun B_4 () (Array Int Int))
(declare-fun .x.21 () (Array Int Int))
(declare-fun C_3 () Int)
(declare-fun .x.22 () Int)
(declare-fun D_3 () (Array Int Int))
(declare-fun .x.23 () (Array Int Int))
(declare-fun E_3 () Int)
(declare-fun M_3 () Int)
(declare-fun F_3 () Int)
(declare-fun .x.24 () Int)
(declare-fun G_3 () (Array Int Int))
(declare-fun .y.13 () (Array Int Int))
(declare-fun H_3 () Int)
(declare-fun .y.14 () Int)
(declare-fun .loc.9 () Bool)
(declare-fun .loc.15 () Bool)
(declare-fun .loc.10 () Bool)
(declare-fun .loc.16 () Bool)
(declare-fun L_4 () Int)
(declare-fun J_4 () Int)
(declare-fun Q_0 () Int)
(declare-fun J_5 () Int)
(declare-fun L_5 () Int)
(define-fun .def_8 () Int (! A_4 :next |.x.20|))
(define-fun .def_10 () Int (! .y.7 :next |.y.11|))
(define-fun .def_12 () Int (! .y.8 :next |.y.12|))
(define-fun .def_14 () (Array Int Int) (! B_4 :next |.x.21|))
(define-fun .def_16 () Int (! C_3 :next |.x.22|))
(define-fun .def_18 () (Array Int Int) (! D_3 :next |.x.23|))
(define-fun .def_20 () Int (! E_3 :next |M_3|))
(define-fun .def_22 () Int (! F_3 :next |.x.24|))
(define-fun .def_24 () (Array Int Int) (! G_3 :next |.y.13|))
(define-fun .def_26 () Int (! H_3 :next |.y.14|))
(define-fun .def_28 () Bool (! .loc.9 :next |.loc.15|))
(define-fun .def_30 () Bool (! .loc.10 :next |.loc.16|))
(define-fun .def_49 () Int (! L_4 :next |.xtv.1|))
(define-fun .def_50 () Int (! J_4 :next |.xtv.2|))
(define-fun .def_54 () Int (! Q_0 :next |.xtv.3|))
(define-fun .def_217 () Int (! J_5 :next |.xpv.1|))
(define-fun .def_221 () Int (! L_5 :next |.xpv.2|))
(define-fun .def_98 () Bool (not .def_28))
(define-fun .def_43 () Bool (not .def_30))
(define-fun .def_216 () Bool (! (and .def_43 .def_98) :init true))
(define-fun .def_211 () Bool (= .def_14 .x.21))
(define-fun .def_212 () Bool (and .loc.16 .def_211))
(define-fun .def_203 () Bool (= .x.24 .def_26))
(define-fun .def_201 () Bool (= .x.23 .def_24))
(define-fun .def_199 () Bool (= .x.22 .def_22))
(define-fun .def_117 () Bool (<= .def_26 .def_20))
(define-fun .def_200 () Bool (and .def_117 .def_199))
(define-fun .def_202 () Bool (and .def_200 .def_201))
(define-fun .def_204 () Bool (and .def_202 .def_203))
(define-fun .def_157 () Bool (= M_3 0))
(define-fun .def_205 () Bool (and .def_157 .def_204))
(define-fun .def_206 () Bool (and .def_98 .def_205))
(define-fun .def_181 () Bool (<= .def_8 0))
(define-fun .def_90 () Bool (<= .def_50 0))
(define-fun .def_91 () Bool (not .def_90))
(define-fun .def_194 () Bool (or .def_91 .def_181))
(define-fun .def_149 () Bool (<= .def_49 0))
(define-fun .def_150 () Bool (not .def_149))
(define-fun .def_36 () Bool (<= .def_16 0))
(define-fun .def_192 () Bool (or .def_36 .def_150))
(define-fun .def_144 () Int (* (- 1) .def_49))
(define-fun .def_188 () Int (+ .def_20 .def_144))
(define-fun .def_189 () Int (+ .def_16 .def_188))
(define-fun .def_190 () Bool (= .def_189 0))
(define-fun .def_70 () Int (* (- 1) .def_50))
(define-fun .def_140 () Int (+ .def_20 .def_70))
(define-fun .def_185 () Int (+ .def_8 .def_140))
(define-fun .def_186 () Bool (= .def_185 0))
(define-fun .def_182 () Bool (not .def_181))
(define-fun .def_178 () Bool (<= .def_22 .def_20))
(define-fun .def_179 () Bool (not .def_178))
(define-fun .def_174 () Int (select .def_14 .def_50))
(define-fun .def_173 () Int (select .def_18 .def_49))
(define-fun .def_175 () Bool (= .def_173 .def_174))
(define-fun .def_176 () Bool (and .def_28 .def_175))
(define-fun .def_122 () Int (* (- 1) M_3))
(define-fun .def_123 () Int (+ .def_20 .def_122))
(define-fun .def_124 () Bool (= .def_123 (- 1)))
(define-fun .def_177 () Bool (and .def_124 .def_176))
(define-fun .def_180 () Bool (and .def_177 .def_179))
(define-fun .def_183 () Bool (and .def_180 .def_182))
(define-fun .def_37 () Bool (not .def_36))
(define-fun .def_184 () Bool (and .def_37 .def_183))
(define-fun .def_187 () Bool (and .def_184 .def_186))
(define-fun .def_191 () Bool (and .def_187 .def_190))
(define-fun .def_193 () Bool (and .def_191 .def_192))
(define-fun .def_195 () Bool (and .def_193 .def_194))
(define-fun .def_39 () Bool (= .def_16 .x.22))
(define-fun .def_196 () Bool (and .def_39 .def_195))
(define-fun .def_128 () Bool (= .def_18 .x.23))
(define-fun .def_197 () Bool (and .def_128 .def_196))
(define-fun .def_41 () Bool (= .def_22 .x.24))
(define-fun .def_198 () Bool (and .def_41 .def_197))
(define-fun .def_207 () Bool (or .def_198 .def_206))
(define-fun .def_32 () Bool (= .def_8 .x.20))
(define-fun .def_171 () Bool (and .def_30 .def_32))
(define-fun .def_172 () Bool (and .loc.15 .def_171))
(define-fun .def_208 () Bool (and .def_172 .def_207))
(define-fun .def_169 () Bool (= .def_22 .y.14))
(define-fun .def_167 () Bool (= .def_20 .x.24))
(define-fun .def_165 () Bool (= .x.20 .def_10))
(define-fun .def_158 () Bool (and .def_28 .def_157))
(define-fun .def_159 () Bool (and .def_39 .def_158))
(define-fun .def_160 () Bool (and .def_128 .def_159))
(define-fun .def_131 () Bool (not .loc.15))
(define-fun .def_161 () Bool (and .def_131 .def_160))
(define-fun .def_162 () Bool (and .def_43 .def_161))
(define-fun .def_45 () Bool (= .def_24 .y.13))
(define-fun .def_163 () Bool (and .def_45 .def_162))
(define-fun .def_83 () Bool (<= .def_22 .def_12))
(define-fun .def_164 () Bool (and .def_83 .def_163))
(define-fun .def_166 () Bool (and .def_164 .def_165))
(define-fun .def_168 () Bool (and .def_166 .def_167))
(define-fun .def_170 () Bool (and .def_168 .def_169))
(define-fun .def_209 () Bool (or .def_170 .def_208))
(define-fun .def_155 () Bool (= .def_26 .y.14))
(define-fun .def_153 () Bool (or .def_36 .def_91))
(define-fun .def_137 () Bool (<= .def_22 0))
(define-fun .def_151 () Bool (or .def_137 .def_150))
(define-fun .def_145 () Int (+ .def_22 .def_144))
(define-fun .def_146 () Int (+ .def_20 .def_145))
(define-fun .def_147 () Bool (= .def_146 0))
(define-fun .def_141 () Int (+ .def_16 .def_140))
(define-fun .def_142 () Bool (= .def_141 0))
(define-fun .def_138 () Bool (not .def_137))
(define-fun .def_133 () Int (select .def_18 .def_50))
(define-fun .def_134 () (Array Int Int) (store .def_24 .def_49 .def_133))
(define-fun .def_135 () Bool (= .y.13 .def_134))
(define-fun .def_118 () Bool (not .def_117))
(define-fun .def_119 () Bool (and .def_32 .def_118))
(define-fun .def_120 () Bool (and .def_30 .def_119))
(define-fun .def_121 () Bool (and .def_98 .def_120))
(define-fun .def_125 () Bool (and .def_121 .def_124))
(define-fun .def_126 () Bool (and .def_37 .def_125))
(define-fun .def_127 () Bool (and .def_39 .def_126))
(define-fun .def_129 () Bool (and .def_127 .def_128))
(define-fun .def_130 () Bool (and .def_41 .def_129))
(define-fun .def_132 () Bool (and .def_130 .def_131))
(define-fun .def_136 () Bool (and .def_132 .def_135))
(define-fun .def_139 () Bool (and .def_136 .def_138))
(define-fun .def_143 () Bool (and .def_139 .def_142))
(define-fun .def_148 () Bool (and .def_143 .def_147))
(define-fun .def_152 () Bool (and .def_148 .def_151))
(define-fun .def_154 () Bool (and .def_152 .def_153))
(define-fun .def_156 () Bool (and .def_154 .def_155))
(define-fun .def_210 () Bool (or .def_156 .def_209))
(define-fun .def_213 () Bool (and .def_210 .def_212))
(define-fun .def_114 () Bool (<= M_3 0))
(define-fun .def_115 () Bool (not .def_114))
(define-fun .def_111 () Bool (<= .x.22 0))
(define-fun .def_112 () Bool (not .def_111))
(define-fun .def_108 () Bool (<= .y.11 0))
(define-fun .def_109 () Bool (not .def_108))
(define-fun .def_105 () Bool (<= .x.24 0))
(define-fun .def_106 () Bool (not .def_105))
(define-fun .def_103 () Bool (= .y.12 0))
(define-fun .def_99 () Bool (and .def_32 .def_98))
(define-fun .def_100 () Bool (and .loc.15 .def_99))
(define-fun .def_101 () Bool (and .def_43 .def_100))
(define-fun .def_47 () Bool (not .loc.16))
(define-fun .def_102 () Bool (and .def_47 .def_101))
(define-fun .def_104 () Bool (and .def_102 .def_103))
(define-fun .def_107 () Bool (and .def_104 .def_106))
(define-fun .def_110 () Bool (and .def_107 .def_109))
(define-fun .def_113 () Bool (and .def_110 .def_112))
(define-fun .def_116 () Bool (and .def_113 .def_115))
(define-fun .def_214 () Bool (or .def_116 .def_213))
(define-fun .def_96 () Bool (= .def_20 M_3))
(define-fun .def_94 () Bool (= .def_10 .y.11))
(define-fun .def_63 () Bool (<= .def_10 0))
(define-fun .def_92 () Bool (or .def_63 .def_91))
(define-fun .def_86 () Bool (<= .def_54 0))
(define-fun .def_87 () Bool (not .def_86))
(define-fun .def_88 () Bool (or .def_36 .def_87))
(define-fun .def_84 () Bool (not .def_83))
(define-fun .def_78 () Int (* (- 1) .def_54))
(define-fun .def_79 () Int (+ .def_16 .def_78))
(define-fun .def_80 () Int (+ .def_12 .def_79))
(define-fun .def_81 () Bool (= .def_80 0))
(define-fun .def_71 () Int (+ .def_12 .def_70))
(define-fun .def_72 () Int (+ .def_10 .def_71))
(define-fun .def_73 () Bool (= .def_72 0))
(define-fun .def_64 () Bool (not .def_63))
(define-fun .def_59 () Int (* (- 1) .y.12))
(define-fun .def_60 () Int (+ .def_12 .def_59))
(define-fun .def_61 () Bool (= .def_60 (- 1)))
(define-fun .def_55 () (Array Int Int) (store .def_18 .def_54 .def_49))
(define-fun .def_56 () Bool (= .x.23 .def_55))
(define-fun .def_51 () (Array Int Int) (store .def_14 .def_50 .def_49))
(define-fun .def_52 () Bool (= .x.21 .def_51))
(define-fun .def_33 () Bool (and .def_28 .def_32))
(define-fun .def_34 () Bool (and .loc.15 .def_33))
(define-fun .def_38 () Bool (and .def_34 .def_37))
(define-fun .def_40 () Bool (and .def_38 .def_39))
(define-fun .def_42 () Bool (and .def_40 .def_41))
(define-fun .def_44 () Bool (and .def_42 .def_43))
(define-fun .def_46 () Bool (and .def_44 .def_45))
(define-fun .def_48 () Bool (and .def_46 .def_47))
(define-fun .def_53 () Bool (and .def_48 .def_52))
(define-fun .def_57 () Bool (and .def_53 .def_56))
(define-fun .def_62 () Bool (and .def_57 .def_61))
(define-fun .def_65 () Bool (and .def_62 .def_64))
(define-fun .def_74 () Bool (and .def_65 .def_73))
(define-fun .def_82 () Bool (and .def_74 .def_81))
(define-fun .def_85 () Bool (and .def_82 .def_84))
(define-fun .def_89 () Bool (and .def_85 .def_88))
(define-fun .def_93 () Bool (and .def_89 .def_92))
(define-fun .def_95 () Bool (and .def_93 .def_94))
(define-fun .def_97 () Bool (and .def_95 .def_96))
(define-fun .def_215 () Bool (! (or .def_97 .def_214) :trans true))
(define-fun .def_244 () Bool (and .def_28 .def_30))
(define-fun .def_238 () Int (select .def_18 .def_221))
(define-fun .def_237 () Int (select .def_14 .def_217))
(define-fun .def_239 () Bool (= .def_237 .def_238))
(define-fun .def_240 () Bool (not .def_239))
(define-fun .def_233 () Bool (and .def_179 .def_182))
(define-fun .def_234 () Bool (and .def_37 .def_233))
(define-fun .def_229 () Int (* (- 1) .def_217))
(define-fun .def_230 () Int (+ .def_20 .def_229))
(define-fun .def_231 () Int (+ .def_8 .def_230))
(define-fun .def_232 () Bool (= .def_231 0))
(define-fun .def_235 () Bool (and .def_232 .def_234))
(define-fun .def_225 () Int (* (- 1) .def_221))
(define-fun .def_226 () Int (+ .def_20 .def_225))
(define-fun .def_227 () Int (+ .def_16 .def_226))
(define-fun .def_228 () Bool (= .def_227 0))
(define-fun .def_236 () Bool (and .def_228 .def_235))
(define-fun .def_241 () Bool (and .def_236 .def_240))
(define-fun .def_222 () Bool (<= .def_221 0))
(define-fun .def_223 () Bool (not .def_222))
(define-fun .def_224 () Bool (or .def_36 .def_223))
(define-fun .def_242 () Bool (and .def_224 .def_241))
(define-fun .def_218 () Bool (<= .def_217 0))
(define-fun .def_219 () Bool (not .def_218))
(define-fun .def_220 () Bool (or .def_181 .def_219))
(define-fun .def_243 () Bool (and .def_220 .def_242))
(define-fun .def_245 () Bool (and .def_243 .def_244))
(define-fun .def_248 () Bool (! (not .def_245) :invar-property 0))
(assert true)
